TYPE : Vertex Cover
DIMENSION: 33
EDGE_DATA_SECTION:
0 1
0 4
0 8
0 9
0 13
0 14
1 8
1 12
1 16
1 19
1 26
2 10
2 11
2 12
2 15
2 18
2 22
2 25
2 27
2 29
2 30
3 4
3 5
3 21
3 25
3 26
3 27
3 28
3 30
3 31
3 32
4 7
4 10
4 12
4 13
4 17
4 21
4 23
4 28
5 7
5 8
5 12
5 15
5 18
5 20
5 22
5 27
5 28
5 30
6 12
6 16
6 20
6 22
6 27
7 10
7 12
7 13
7 15
7 17
7 18
7 19
7 20
7 25
7 27
7 30
8 10
8 21
9 16
9 17
9 20
9 22
9 26
9 28
9 32
10 13
10 17
10 19
10 26
10 29
10 30
11 14
11 17
11 20
11 21
11 22
11 25
11 28
12 15
12 21
12 25
13 14
13 20
13 26
13 27
14 19
14 20
14 21
14 25
15 20
15 21
15 26
15 29
16 21
16 22
16 23
17 19
17 27
17 29
18 19
18 25
18 28
19 23
19 27
19 28
19 30
20 22
20 23
20 29
20 32
21 22
22 28
22 30
23 26
23 27
23 31
24 25
24 27
24 30
24 32
25 27
25 29
25 30
26 28
26 29
27 29
27 31
-1
VERTEX_DEGREE:
6.0 6.0 10.0 10.0 10.0 11.0 5.0 13.0 5.0 8.0 10.0 8.0 9.0 8.0 7.0 8.0 6.0 8.0 6.0 10.0 12.0 9.0 10.0 7.0 4.0 11.0 9.0 13.0 9.0 8.0 9.0 3.0 4.0
VERTEX_COVER:
0 1 2 4 5 6 7 10 14 15 16 17 19 20 21 22 25 26 27 28 30 31 32
EOF
